0000111100000000
0000111100000000
0000111100000000
0000111100000000
0000111111111100
0000111111111110
0000111111111110
0000000000111110
0000000000011110
0000000000111110
0000000001111100
0000000011111000
0000000111110000
0000000111100000
0000000111100000
0000000111100000
